\ This file has been generated by DOcplex
\ ENCODING=ISO-8859-1
\Problem name: microgrid_mo_dpa

Minimize
 obj:
Subject To
 c1: x_0 + x_1 + x_2 + x_3 + x_4 + x_5 + x_6 + x_7 + x_8 + x_9 + x_10 + x_11
     + x_12 + x_13 + x_14 + x_15 + x_16 + x_17 + x_18 + x_19 + x_20 + x_21 = 3
 obj_0: - 569.882354973871 x_0 - 912.948954441033 x_1 - 995.999707239572 x_2
        - 1000 x_3 - 986.062910375022 x_4 - 924.460737872216 x_5
        - 918.969317727242 x_6 - 910.641926826143 x_7 - 802.326100788317 x_8
        - 718.382779243853 x_9 - 670.717128621227 x_10 - 641.423675532575 x_11
        - 546.721883024188 x_12 - 549.988674467844 x_13 - 921.798992697569 x_14
        - 931.291029808437 x_15 - 952.294952724389 x_16 - 925.807996543245 x_17
        - 910.004351932993 x_18 - 849.345307158932 x_19 - 829.256575124497 x_20
        - 811.827402610070 x_21 <= 0
 obj_1: 142.857142857143 x_0 + 142.857142857143 x_1 + 476.190476190476 x_2
        + 476.190476190476 x_3 + 142.857142857143 x_4 + 142.857142857143 x_5
        + 107.142857142857 x_6 + 142.857142857143 x_7 + 142.857142857143 x_8
        + 285.714285714286 x_9 + 142.857142857143 x_10 + 142.857142857143 x_11
        + 142.857142857143 x_12 + 214.285714285714 x_13 + 142.857142857143 x_14
        + 142.857142857143 x_15 + 142.857142857143 x_16 + 285.714285714286 x_17
        + 476.190476190476 x_18 + 357.142857142857 x_19 + 500 x_20
        + 142.857142857143 x_21 <= 0
 obj_2: - 235.294117647059 x_0 - 294.117647058824 x_1 - 352.941176470588 x_2
        - 411.764705882353 x_3 - 470.588235294118 x_4 - 529.411764705882 x_5
        - 588.235294117647 x_6 - 647.058823529412 x_7 - 705.882352941176 x_8
        - 764.705882352941 x_9 - 823.529411764706 x_10 - 882.352941176471 x_11
        - 941.176470588235 x_12 - 1000 x_13 - 352.941176470588 x_14
        - 411.764705882353 x_15 - 470.588235294118 x_16 - 529.411764705882 x_17
        - 588.235294117647 x_18 - 647.058823529412 x_19 - 705.882352941176 x_20
        - 764.705882352941 x_21 <= 3

Bounds
 0 <= x_0 <= 1
 0 <= x_1 <= 1
 0 <= x_2 <= 1
 0 <= x_3 <= 1
 0 <= x_4 <= 1
 0 <= x_5 <= 1
 0 <= x_6 <= 1
 0 <= x_7 <= 1
 0 <= x_8 <= 1
 0 <= x_9 <= 1
 0 <= x_10 <= 1
 0 <= x_11 <= 1
 0 <= x_12 <= 1
 0 <= x_13 <= 1
 0 <= x_14 <= 1
 0 <= x_15 <= 1
 0 <= x_16 <= 1
 0 <= x_17 <= 1
 0 <= x_18 <= 1
 0 <= x_19 <= 1
 0 <= x_20 <= 1
 0 <= x_21 <= 1

Binaries
 x_0 x_1 x_2 x_3 x_4 x_5 x_6 x_7 x_8 x_9 x_10 x_11 x_12 x_13 x_14 x_15 x_16 x_17
 x_18 x_19 x_20 x_21
End
