\ This file has been generated by DOcplex
\ ENCODING=ISO-8859-1
\Problem name: microgrid_mo_dpa

Maximize
 obj:
Subject To
 c1: x_0 + x_1 + x_2 + x_3 + x_4 + x_5 + x_6 + x_7 + x_8 + x_9 + x_10 + x_11
     + x_12 + x_13 + x_14 = 3
 obj_1: 0.214285714286 x_0 + 0.285714285714 x_1 + 0.142857142857 x_2
        + 0.142857142857 x_3 + 0.476190476190 x_4 + 0.476190476190 x_5
        + 0.142857142857 x_6 + 0.142857142857 x_7 + 0.107142857143 x_8
        + 0.142857142857 x_9 + 0.142857142857 x_10 + 0.285714285714 x_11
        + 0.142857142857 x_12 + 0.500000000000 x_13 + 0.142857142857 x_14 >= 0
 obj_2: - 0.117647058824 x_0 - 0.176470588235 x_1 - 0.235294117647 x_2
        - 0.294117647059 x_3 - 0.352941176471 x_4 - 0.411764705882 x_5
        - 0.470588235294 x_6 - 0.529411764706 x_7 - 0.588235294118 x_8
        - 0.647058823529 x_9 - 0.705882352941 x_10 - 0.764705882353 x_11
        - 0.823529411765 x_12 - 0.705882352941 x_13 - 0.764705882353 x_14 >= 3

Bounds
 0 <= x_0 <= 1
 0 <= x_1 <= 1
 0 <= x_2 <= 1
 0 <= x_3 <= 1
 0 <= x_4 <= 1
 0 <= x_5 <= 1
 0 <= x_6 <= 1
 0 <= x_7 <= 1
 0 <= x_8 <= 1
 0 <= x_9 <= 1
 0 <= x_10 <= 1
 0 <= x_11 <= 1
 0 <= x_12 <= 1
 0 <= x_13 <= 1
 0 <= x_14 <= 1

Binaries
 x_0 x_1 x_2 x_3 x_4 x_5 x_6 x_7 x_8 x_9 x_10 x_11 x_12 x_13 x_14
End
