\ This file has been generated by DOcplex
\ ENCODING=ISO-8859-1
\Problem name: microgrid_mo_dpa

Minimize
 obj:
Subject To
 c1: x_0 + x_1 + x_2 + x_3 + x_4 + x_5 + x_6 + x_7 + x_8 + x_9 + x_10 + x_11
     + x_12 = 3
 obj_0: - 0.000000000042 x_0 - 0.000000000042 x_1 - 230.339827388493 x_2
        - 168.947970874502 x_3 - 0.000000000042 x_4 - 623.509672841178 x_5
        - 0.000000000042 x_6 - 923.915629993645 x_7 - 1000 x_8
        - 747.648846979465 x_9 - 539.643025936845 x_10 - 499.971112796601 x_11
        - 964.032812149785 x_12 <= 0
 obj_1: 230.360934182590 x_0 + 1000 x_1 + 507.430997876858 x_2
        + 80.679405520170 x_3 + 118.895966029724 x_4 + 24.995174676703 x_5
        + 24.995174676703 x_6 + 313.163481953291 x_7 + 95.541401273885 x_8
        + 37.154989384289 x_9 + 64.755838641189 x_10 + 143.312101910828 x_11
        + 158.174097664544 x_12 <= 0
 obj_2: - 250 x_0 - 500 x_1 - 500 x_2 - 250 x_3 - 500 x_4 - 750 x_5 - 1000 x_6
        - 750 x_7 - 1000 x_8 - 750 x_9 - 750 x_10 - 750 x_11 - 1000 x_12 <= 3

Bounds
 0 <= x_0 <= 1
 0 <= x_1 <= 1
 0 <= x_2 <= 1
 0 <= x_3 <= 1
 0 <= x_4 <= 1
 0 <= x_5 <= 1
 0 <= x_6 <= 1
 0 <= x_7 <= 1
 0 <= x_8 <= 1
 0 <= x_9 <= 1
 0 <= x_10 <= 1
 0 <= x_11 <= 1
 0 <= x_12 <= 1

Binaries
 x_0 x_1 x_2 x_3 x_4 x_5 x_6 x_7 x_8 x_9 x_10 x_11 x_12
End
