\ This file has been generated by DOcplex
\ ENCODING=ISO-8859-1
\Problem name: microgrid_mo_dpa

Minimize
 obj:
Subject To
 c1: x_0 + x_1 + x_2 + x_3 + x_4 + x_5 + x_6 + x_7 + x_8 + x_9 + x_10 + x_11
     + x_12 + x_13 + x_14 + x_15 + x_16 + x_17 + x_18 + x_19 + x_20 + x_21
     + x_22 + x_23 + x_24 + x_25 + x_26 + x_27 + x_28 + x_29 = 3
 obj_0: - 50.074340851394 x_0 - 290.446401973868 x_1 - 437.283893275485 x_2
        - 569.882354973871 x_3 - 912.948954441033 x_4 - 995.999707239572 x_5
        - 1000 x_6 - 986.062910375022 x_7 - 924.460737872216 x_8
        - 918.969317727242 x_9 - 910.641926826143 x_10 - 802.326100788317 x_11
        - 718.382779243853 x_12 - 670.717128621227 x_13 - 641.423675532575 x_14
        - 546.721883024188 x_15 - 549.988674467844 x_16 - 50.420954104461 x_17
        - 4.254956981628 x_18 - 288.954250672641 x_19 - 272.603522057368 x_20
        - 249.579569517722 x_21 - 921.798992697569 x_22 - 931.291029808437 x_23
        - 952.294952724389 x_24 - 925.807996543245 x_25 - 910.004351932993 x_26
        - 849.345307158932 x_27 - 829.256575124497 x_28 - 811.827402610070 x_29
         <= 0
 obj_1: 238.095238095238 x_0 + 214.285714285714 x_1 + 285.714285714286 x_2
        + 142.857142857143 x_3 + 142.857142857143 x_4 + 476.190476190476 x_5
        + 476.190476190476 x_6 + 142.857142857143 x_7 + 142.857142857143 x_8
        + 107.142857142857 x_9 + 142.857142857143 x_10 + 142.857142857143 x_11
        + 285.714285714286 x_12 + 142.857142857143 x_13 + 142.857142857143 x_14
        + 142.857142857143 x_15 + 214.285714285714 x_16 + 214.285714285714 x_17
        + 214.285714285714 x_18 + 214.285714285714 x_19 + 1000 x_20 + 1000 x_21
        + 142.857142857143 x_22 + 142.857142857143 x_23 + 142.857142857143 x_24
        + 285.714285714286 x_25 + 476.190476190476 x_26 + 357.142857142857 x_27
        + 500 x_28 + 142.857142857143 x_29 <= 0
 obj_2: - 58.823529411765 x_0 - 117.647058823529 x_1 - 176.470588235294 x_2
        - 235.294117647059 x_3 - 294.117647058824 x_4 - 352.941176470588 x_5
        - 411.764705882353 x_6 - 470.588235294118 x_7 - 529.411764705882 x_8
        - 588.235294117647 x_9 - 647.058823529412 x_10 - 705.882352941176 x_11
        - 764.705882352941 x_12 - 823.529411764706 x_13 - 882.352941176471 x_14
        - 941.176470588235 x_15 - 1000 x_16 - 117.647058823529 x_17
        - 176.470588235294 x_18 - 176.470588235294 x_19 - 235.294117647059 x_20
        - 294.117647058824 x_21 - 352.941176470588 x_22 - 411.764705882353 x_23
        - 470.588235294118 x_24 - 529.411764705882 x_25 - 588.235294117647 x_26
        - 647.058823529412 x_27 - 705.882352941176 x_28 - 764.705882352941 x_29
         <= 3

Bounds
 0 <= x_0 <= 1
 0 <= x_1 <= 1
 0 <= x_2 <= 1
 0 <= x_3 <= 1
 0 <= x_4 <= 1
 0 <= x_5 <= 1
 0 <= x_6 <= 1
 0 <= x_7 <= 1
 0 <= x_8 <= 1
 0 <= x_9 <= 1
 0 <= x_10 <= 1
 0 <= x_11 <= 1
 0 <= x_12 <= 1
 0 <= x_13 <= 1
 0 <= x_14 <= 1
 0 <= x_15 <= 1
 0 <= x_16 <= 1
 0 <= x_17 <= 1
 0 <= x_18 <= 1
 0 <= x_19 <= 1
 0 <= x_20 <= 1
 0 <= x_21 <= 1
 0 <= x_22 <= 1
 0 <= x_23 <= 1
 0 <= x_24 <= 1
 0 <= x_25 <= 1
 0 <= x_26 <= 1
 0 <= x_27 <= 1
 0 <= x_28 <= 1
 0 <= x_29 <= 1

Binaries
 x_0 x_1 x_2 x_3 x_4 x_5 x_6 x_7 x_8 x_9 x_10 x_11 x_12 x_13 x_14 x_15 x_16 x_17
 x_18 x_19 x_20 x_21 x_22 x_23 x_24 x_25 x_26 x_27 x_28 x_29
End
